1	20	8	4	3	9	10	19	2	7	11	6	2	12	4	10	5	6	17	7
10	4	10	13	12	4	10	17	9	5	18	5	10	5	9	2	8	2	4	20
18	4	5	15	15	5	2	20	11	18	19	16	7	6	13	4	18	6	18	18
14	6	18	2	1	3	7	5	11	20	15	7	3	14	19	19	7	20	17	12
12	2	15	8	13	20	10	7	5	16	17	20	20	9	7	2	13	3	10	11
5	12	17	14	18	20	1	7	9	7	12	18	9	12	15	11	17	4	5	10
16	4	2	5	5	20	11	14	7	16	3	20	2	20	15	8	7	16	5	19
4	7	14	18	6	18	9	14	15	10	9	10	1	10	17	9	3	1	8	17
6	12	18	12	16	12	10	7	19	9	18	14	18	15	15	1	7	9	14	19
